(set-logic HORN)
(set-info :source |
    Benchmark: C_VC
    Output by Princess (http://www.philipp.ruemmer.org/princess.shtml)
|)
(set-info :status unsat)
;===============================================================================
; Encoding of Heap sorts and operations
;-------------------------------------------------------------------------------
(define-sort Addr() Int)
(declare-datatypes ((AddrRange 0))
                   (((AddrRange (AddrRangeStart Addr) (AddrRangeSize Int)))))

(declare-datatypes ((HeapObject 0))
                   (((O_Int (getInt Int)) (O_UInt (getUInt Int)) (O_Addr (getAddr Addr)) (defObj))))
(declare-datatypes ((BatchAllocResHeap 0) (AllocResHeap 0) (Heap 0))
                   (((BatchAllocResHeap   (newBatchHeap Heap) (newAddrRange AddrRange)))
                   ((AllocResHeap   (newHeap Heap) (newAddr Addr)))
                    ((HeapCtor (HeapSize Int)
                               (HeapContents (Array Addr HeapObject))))))
(define-fun nullAddr  () Addr 0)
(define-fun validHeap     ((h Heap) (p Addr)) Bool
  (and (>= (HeapSize h) p) (> p 0)))
(define-fun emptyHeap () Heap (
  HeapCtor 0 (( as const (Array Addr HeapObject)) defObj)))
(define-fun readHeap ((h Heap) (p Addr)) HeapObject
  (ite (validHeap h p)
       (select (HeapContents h) p)
       defObj))
(define-fun writeHeap ((h Heap) (p Addr) (o HeapObject)) Heap
  (ite (validHeap h p)
       (HeapCtor (HeapSize h) (store (HeapContents h) p o))
       h))
(define-fun allocHeap   ((h Heap) (o HeapObject)) AllocResHeap
  (AllocResHeap (HeapCtor (+ 1 (HeapSize h))
                    (store (HeapContents h) (+ 1 (HeapSize h)) o))
          (+ 1 (HeapSize h))))
(define-fun Heap-eq     ((h1 Heap) (h2 Heap)) Bool
  (forall ((p Addr))
          (and (= (validHeap h1 p) (validHeap h2 p))
               (= (readHeap h1 p) (readHeap h2 p)))))
(define-fun nthAddrRange((ar AddrRange) (n Int)) Addr
  (ite (and (>= n 0) (< n (AddrRangeSize ar)))
       (+ (AddrRangeStart ar) n)
       nullAddr))
(define-fun withinHeap ((ar AddrRange ) (p Addr)) Bool
  (and (>= p (AddrRangeStart ar)) (< p (+ (AddrRangeStart ar) (AddrRangeSize ar)))))

(declare-fun batchAllocHeap     (Heap Heap HeapObject Int Int) Bool)
(declare-fun batchAllocPostHeap (Heap Heap HeapObject Int) Bool)

(assert (forall ((h1 Heap) (h2 Heap) (o HeapObject) (n1 Int) (n2 Int))
                (=> (and (> n2 0) (batchAllocHeap h1 h2 o n1 n2))
                   (batchAllocHeap h1 (newHeap (allocHeap h2 o)) o n1 (- n2 1)))))
(assert (forall ((h1 Heap) (h2 Heap) (o HeapObject) (n1 Int) (n2 Int))
                (=> (and (<= n2 0) (batchAllocHeap h1 h2 o n1 n2))
                   (batchAllocPostHeap h1 h2 o n1))))

(declare-fun batchWriteHeap     (Heap Heap Addr Addr HeapObject Int Int) Bool)
(declare-fun batchWritePostHeap (Heap Heap Addr HeapObject Int) Bool)

(assert (forall ((h1 Heap) (h2 Heap) (a1 Addr) (a2 Addr) (o HeapObject) (n1 Int) (n2 Int))
                (=> (and (> n2 0) (batchWriteHeap h1 h2 a1 a2 o n1 n2))
                   (batchWriteHeap h1 (writeHeap h2 a2 o) a1 (+ a2 1) o n1 (- n2 1)))))
(assert (forall ((h1 Heap) (h2 Heap) (a1 Addr) (a2 Addr) (o HeapObject) (n1 Int) (n2 Int))
                (=> (and (<= n2 0) (batchWriteHeap h1 h2 a1 a2 o n1 n2))
                   (batchWritePostHeap h1 h2 a1 o n1))))

;===============================================================================
(declare-fun inv_main10 (Heap AddrRange AddrRange Int) Bool)
(declare-fun inv_main13 (Heap AddrRange AddrRange Int) Bool)
(declare-fun inv_main15 (Heap AddrRange AddrRange Int) Bool)
(declare-fun inv_main16 (Heap AddrRange AddrRange Int) Bool)
(declare-fun inv_main20 (Heap AddrRange AddrRange Int Int) Bool)
(declare-fun inv_main21 (Heap AddrRange AddrRange Int Int) Bool)
(declare-fun inv_main22 (Heap AddrRange AddrRange Int Int) Bool)
(declare-fun inv_main25 (Heap AddrRange AddrRange Int Int Int) Bool)
(declare-fun inv_main28 (Heap AddrRange AddrRange Int Int) Bool)
(declare-fun inv_main31 (Heap AddrRange AddrRange Int Int Int) Bool)
(declare-fun inv_main5 (Heap AddrRange AddrRange Int) Bool)
(assert (forall ((var0 Int) (var1 AddrRange) (var2 AddrRange) (var3 Int) (var4 Heap) (var5 AddrRange) (var6 Int) (var7 Heap) (var8 Heap)) (or (not (and (and (batchAllocPostHeap emptyHeap var4 (O_Int var3) 100000) (batchAllocPostHeap emptyHeap var7 (O_Int var6) 100000)) (and (and (and (and (and (and (= var1 (AddrRange (ite (<= 0 99999) (+ (HeapSize emptyHeap) 1) (HeapSize emptyHeap)) 100000)) (= var2 var5)) true) (= var5 (AddrRange (ite (<= 0 99999) (+ (HeapSize emptyHeap) 1) (HeapSize emptyHeap)) 100000))) true) (= var8 emptyHeap)) (= var0 0)))) (inv_main5 var4 var2 var1 var0))))
(assert (forall ((var0 Int) (var1 AddrRange) (var2 AddrRange) (var3 Int) (var4 Heap) (var5 AddrRange) (var6 Int) (var7 Heap) (var8 Heap)) (or (not (and (and (and (and (and (and (= var1 (AddrRange (ite (<= 0 99999) (+ (HeapSize emptyHeap) 1) (HeapSize emptyHeap)) 100000)) (= var2 var5)) true) (= var5 (AddrRange (ite (<= 0 99999) (+ (HeapSize emptyHeap) 1) (HeapSize emptyHeap)) 100000))) true) (= var8 emptyHeap)) (= var0 0))) (batchAllocHeap emptyHeap emptyHeap (O_Int var3) 100000 100000))))
(assert (forall ((var0 Int) (var1 AddrRange) (var2 AddrRange) (var3 Int) (var4 Heap) (var5 AddrRange) (var6 Int) (var7 Heap) (var8 Heap)) (or (not (and (and (and (and (and (and (= var1 (AddrRange (ite (<= 0 99999) (+ (HeapSize emptyHeap) 1) (HeapSize emptyHeap)) 100000)) (= var2 var5)) true) (= var5 (AddrRange (ite (<= 0 99999) (+ (HeapSize emptyHeap) 1) (HeapSize emptyHeap)) 100000))) true) (= var8 emptyHeap)) (= var0 0))) (batchAllocHeap emptyHeap emptyHeap (O_Int var6) 100000 100000))))
(assert (forall ((var0 Int) (var1 Int) (var2 Int) (var3 AddrRange) (var4 AddrRange) (var5 Heap)) (or (not (and (and (inv_main22 var5 var4 var3 var2 var1) (= var0 (getInt (readHeap var5 (nthAddrRange var4 var2))))) (is-O_Int (readHeap var5 (nthAddrRange var4 var2))))) (inv_main31 var5 var4 var3 var2 var1 var0))))
(assert (forall ((var0 Int) (var1 Int) (var2 Int) (var3 AddrRange) (var4 AddrRange) (var5 Heap) (var6 Int) (var7 Int) (var8 Int) (var9 Int) (var10 AddrRange) (var11 AddrRange) (var12 Heap)) (or (not (and (and (and (and (and (and (and (and (and (and (inv_main25 var12 var11 var10 var9 var8 var7) (= var0 0)) (or (and (= (getInt (readHeap var12 (nthAddrRange var10 var9))) 0) (= var6 1)) (and (not (= (getInt (readHeap var12 (nthAddrRange var10 var9))) 0)) (= var6 0)))) (= var1 var8)) (= var2 var9)) (= var3 var10)) (= var4 var11)) (= var5 var12)) (is-O_Int (readHeap var12 (nthAddrRange var10 var9)))) (<= 0 var7)) (not (= var6 0)))) (inv_main22 var5 var4 var3 var2 var0))))
(assert (forall ((var0 Int) (var1 Int) (var2 Int) (var3 AddrRange) (var4 AddrRange) (var5 Heap)) (or (not (and (inv_main25 var5 var4 var3 var2 var1 var0) (not (<= 0 var0)))) (inv_main22 var5 var4 var3 var2 var1))))
(assert (forall ((var0 Int) (var1 Int) (var2 AddrRange) (var3 AddrRange) (var4 Heap) (var5 Int) (var6 Int) (var7 Int) (var8 Int) (var9 AddrRange) (var10 AddrRange) (var11 Heap)) (or (not (and (and (and (and (and (and (and (and (and (inv_main25 var11 var10 var9 var8 var7 var6) (or (and (= (getInt (readHeap var11 (nthAddrRange var9 var8))) 0) (= var5 1)) (and (not (= (getInt (readHeap var11 (nthAddrRange var9 var8))) 0)) (= var5 0)))) (= var0 var7)) (= var1 var8)) (= var2 var9)) (= var3 var10)) (= var4 var11)) (is-O_Int (readHeap var11 (nthAddrRange var9 var8)))) (<= 0 var6)) (= var5 0))) (inv_main22 var4 var3 var2 var1 var0))))
(assert (forall ((var0 Int) (var1 AddrRange) (var2 AddrRange) (var3 Heap) (var4 Int) (var5 Int) (var6 AddrRange) (var7 AddrRange) (var8 Heap)) (or (not (and (and (and (and (and (and (and (inv_main13 var8 var7 var6 var5) (= var4 (getInt (readHeap var8 (nthAddrRange var7 var5))))) (= var0 var5)) (= var1 var6)) (= var2 var7)) (= var3 var8)) (is-O_Int (readHeap var8 (nthAddrRange var7 var5)))) (not (<= 0 var4)))) (inv_main16 var3 var2 var1 var0))))
(assert (forall ((var0 Int) (var1 Int) (var2 Int) (var3 AddrRange) (var4 AddrRange) (var5 Heap) (var6 Int) (var7 Int) (var8 Int) (var9 Int) (var10 AddrRange) (var11 AddrRange) (var12 Heap)) (or (not (and (and (and (and (and (and (and (and (and (and (inv_main31 var12 var11 var10 var9 var8 var7) (= var0 0)) (or (and (= (getInt (readHeap var12 (nthAddrRange var10 var9))) 0) (= var6 1)) (and (not (= (getInt (readHeap var12 (nthAddrRange var10 var9))) 0)) (= var6 0)))) (= var1 var8)) (= var2 var9)) (= var3 var10)) (= var4 var11)) (= var5 var12)) (is-O_Int (readHeap var12 (nthAddrRange var10 var9)))) (<= 0 (+ (* (- 1) var7) (* (- 1) 1)))) (not (= var6 0)))) (inv_main28 var5 var4 var3 var2 var0))))
(assert (forall ((var0 Int) (var1 Int) (var2 Int) (var3 AddrRange) (var4 AddrRange) (var5 Heap)) (or (not (and (inv_main31 var5 var4 var3 var2 var1 var0) (not (<= 0 (+ (* (- 1) var0) (* (- 1) 1)))))) (inv_main28 var5 var4 var3 var2 var1))))
(assert (forall ((var0 Int) (var1 Int) (var2 AddrRange) (var3 AddrRange) (var4 Heap) (var5 Int) (var6 Int) (var7 Int) (var8 Int) (var9 AddrRange) (var10 AddrRange) (var11 Heap)) (or (not (and (and (and (and (and (and (and (and (and (inv_main31 var11 var10 var9 var8 var7 var6) (or (and (= (getInt (readHeap var11 (nthAddrRange var9 var8))) 0) (= var5 1)) (and (not (= (getInt (readHeap var11 (nthAddrRange var9 var8))) 0)) (= var5 0)))) (= var0 var7)) (= var1 var8)) (= var2 var9)) (= var3 var10)) (= var4 var11)) (is-O_Int (readHeap var11 (nthAddrRange var9 var8)))) (<= 0 (+ (* (- 1) var6) (* (- 1) 1)))) (= var5 0))) (inv_main28 var4 var3 var2 var1 var0))))
(assert (forall ((var0 Int) (var1 AddrRange) (var2 AddrRange) (var3 Int) (var4 Heap) (var5 Int) (var6 Int) (var7 AddrRange) (var8 AddrRange) (var9 Heap)) (or (not (and (and (and (and (and (and (and (and (inv_main10 var9 var8 var7 var6) (= var0 0)) (= var5 var6)) (= var1 var7)) (= var2 var8)) (= var4 (writeHeap var9 (nthAddrRange var8 var6) (O_Int var3)))) (is-O_Int (readHeap var9 (nthAddrRange var8 var6)))) (is-O_Int (readHeap var9 (nthAddrRange var8 var6)))) (not (<= 0 (+ (+ (* (- 1) (+ var5 1)) 100000) (* (- 1) 1)))))) (inv_main13 var4 var2 var1 var0))))
(assert (forall ((var0 Int) (var1 AddrRange) (var2 AddrRange) (var3 Heap) (var4 Int) (var5 Int) (var6 AddrRange) (var7 AddrRange) (var8 Heap)) (or (not (and (and (and (and (and (and (and (and (inv_main15 var8 var7 var6 var5) (= var0 (+ var4 1))) (= var4 var5)) (= var1 var6)) (= var2 var7)) (= var3 (writeHeap var8 (nthAddrRange var6 var5) (O_Int 1)))) (is-O_Int (readHeap var8 (nthAddrRange var6 var5)))) (is-O_Int (readHeap var8 (nthAddrRange var6 var5)))) (<= 0 (+ (+ (* (- 1) (+ var4 1)) 100000) (* (- 1) 1))))) (inv_main13 var3 var2 var1 var0))))
(assert (forall ((var0 Int) (var1 AddrRange) (var2 AddrRange) (var3 Heap) (var4 Int) (var5 Int) (var6 AddrRange) (var7 AddrRange) (var8 Heap)) (or (not (and (and (and (and (and (and (and (and (inv_main16 var8 var7 var6 var5) (= var0 (+ var4 1))) (= var4 var5)) (= var1 var6)) (= var2 var7)) (= var3 (writeHeap var8 (nthAddrRange var6 var5) (O_Int 0)))) (is-O_Int (readHeap var8 (nthAddrRange var6 var5)))) (is-O_Int (readHeap var8 (nthAddrRange var6 var5)))) (<= 0 (+ (+ (* (- 1) (+ var4 1)) 100000) (* (- 1) 1))))) (inv_main13 var3 var2 var1 var0))))
(assert (forall ((var0 Int) (var1 Int) (var2 AddrRange) (var3 AddrRange) (var4 Heap)) (or (not (and (inv_main5 var4 var3 var2 var1) (= var0 0))) (inv_main10 var4 var3 var2 var0))))
(assert (forall ((var0 Int) (var1 AddrRange) (var2 AddrRange) (var3 Int) (var4 Heap) (var5 Int) (var6 Int) (var7 AddrRange) (var8 AddrRange) (var9 Heap)) (or (not (and (and (and (and (and (and (and (and (inv_main10 var9 var8 var7 var6) (= var0 (+ var5 1))) (= var5 var6)) (= var1 var7)) (= var2 var8)) (= var4 (writeHeap var9 (nthAddrRange var8 var6) (O_Int var3)))) (is-O_Int (readHeap var9 (nthAddrRange var8 var6)))) (is-O_Int (readHeap var9 (nthAddrRange var8 var6)))) (<= 0 (+ (+ (* (- 1) (+ var5 1)) 100000) (* (- 1) 1))))) (inv_main10 var4 var2 var1 var0))))
(assert (forall ((var0 Int) (var1 Int) (var2 Int) (var3 AddrRange) (var4 AddrRange) (var5 Heap)) (or (not (and (and (inv_main21 var5 var4 var3 var2 var1) (= var0 (getInt (readHeap var5 (nthAddrRange var4 var2))))) (is-O_Int (readHeap var5 (nthAddrRange var4 var2))))) (inv_main25 var5 var4 var3 var2 var1 var0))))
(assert (forall ((var0 Int) (var1 AddrRange) (var2 AddrRange) (var3 Heap) (var4 Int) (var5 Int) (var6 AddrRange) (var7 AddrRange) (var8 Heap)) (or (not (and (and (and (and (and (and (and (inv_main13 var8 var7 var6 var5) (= var4 (getInt (readHeap var8 (nthAddrRange var7 var5))))) (= var0 var5)) (= var1 var6)) (= var2 var7)) (= var3 var8)) (is-O_Int (readHeap var8 (nthAddrRange var7 var5)))) (<= 0 var4))) (inv_main15 var3 var2 var1 var0))))
(assert (forall ((var0 Int) (var1 Int) (var2 Int) (var3 AddrRange) (var4 AddrRange) (var5 Heap)) (or (not (and (and (inv_main28 var5 var4 var3 var2 var1) (= var0 (+ var2 1))) (<= 0 (+ (+ (* (- 1) (+ var2 1)) 100000) (* (- 1) 1))))) (inv_main21 var5 var4 var3 var0 var1))))
(assert (forall ((var0 Int) (var1 Int) (var2 AddrRange) (var3 AddrRange) (var4 Heap) (var5 Int) (var6 Int) (var7 AddrRange) (var8 AddrRange) (var9 Heap)) (or (not (and (and (and (and (and (and (and (and (and (inv_main15 var9 var8 var7 var6) (= var0 1)) (= var1 0)) (= var5 var6)) (= var2 var7)) (= var3 var8)) (= var4 (writeHeap var9 (nthAddrRange var7 var6) (O_Int 1)))) (is-O_Int (readHeap var9 (nthAddrRange var7 var6)))) (is-O_Int (readHeap var9 (nthAddrRange var7 var6)))) (not (<= 0 (+ (+ (* (- 1) (+ var5 1)) 100000) (* (- 1) 1)))))) (inv_main21 var4 var3 var2 var1 var0))))
(assert (forall ((var0 Int) (var1 Int) (var2 AddrRange) (var3 AddrRange) (var4 Heap) (var5 Int) (var6 Int) (var7 AddrRange) (var8 AddrRange) (var9 Heap)) (or (not (and (and (and (and (and (and (and (and (and (inv_main16 var9 var8 var7 var6) (= var0 1)) (= var1 0)) (= var5 var6)) (= var2 var7)) (= var3 var8)) (= var4 (writeHeap var9 (nthAddrRange var7 var6) (O_Int 0)))) (is-O_Int (readHeap var9 (nthAddrRange var7 var6)))) (is-O_Int (readHeap var9 (nthAddrRange var7 var6)))) (not (<= 0 (+ (+ (* (- 1) (+ var5 1)) 100000) (* (- 1) 1)))))) (inv_main21 var4 var3 var2 var1 var0))))
(assert (forall ((var0 Int) (var1 Int) (var2 Int) (var3 AddrRange) (var4 AddrRange) (var5 Heap)) (or (not (and (and (inv_main28 var5 var4 var3 var2 var1) (= var0 (+ var2 1))) (not (<= 0 (+ (+ (* (- 1) (+ var2 1)) 100000) (* (- 1) 1)))))) (inv_main20 var5 var4 var3 var0 var1))))
(assert (forall ((var0 Int) (var1 AddrRange) (var2 AddrRange) (var3 Heap)) (not (and (inv_main10 var3 var2 var1 var0) (not (is-O_Int (readHeap var3 (nthAddrRange var2 var0))))))))
(assert (forall ((var0 Int) (var1 AddrRange) (var2 AddrRange) (var3 Heap)) (not (and (and (inv_main10 var3 var2 var1 var0) (not (withinHeap var2 (nthAddrRange var2 var0)))) (is-O_Int (readHeap var3 (nthAddrRange var2 var0)))))))
(assert (forall ((var0 Int) (var1 AddrRange) (var2 AddrRange) (var3 Heap)) (not (and (and (inv_main10 var3 var2 var1 var0) (not (is-O_Int (readHeap var3 (nthAddrRange var2 var0))))) (is-O_Int (readHeap var3 (nthAddrRange var2 var0)))))))
(assert (forall ((var0 Int) (var1 AddrRange) (var2 AddrRange) (var3 Heap)) (not (and (inv_main13 var3 var2 var1 var0) (not (is-O_Int (readHeap var3 (nthAddrRange var2 var0))))))))
(assert (forall ((var0 Int) (var1 AddrRange) (var2 AddrRange) (var3 Heap)) (not (and (and (inv_main13 var3 var2 var1 var0) (not (withinHeap var2 (nthAddrRange var2 var0)))) (is-O_Int (readHeap var3 (nthAddrRange var2 var0)))))))
(assert (forall ((var0 Int) (var1 AddrRange) (var2 AddrRange) (var3 Heap)) (not (and (inv_main15 var3 var2 var1 var0) (not (is-O_Int (readHeap var3 (nthAddrRange var1 var0))))))))
(assert (forall ((var0 Int) (var1 AddrRange) (var2 AddrRange) (var3 Heap)) (not (and (and (inv_main15 var3 var2 var1 var0) (not (withinHeap var1 (nthAddrRange var1 var0)))) (is-O_Int (readHeap var3 (nthAddrRange var1 var0)))))))
(assert (forall ((var0 Int) (var1 AddrRange) (var2 AddrRange) (var3 Heap)) (not (and (and (inv_main15 var3 var2 var1 var0) (not (is-O_Int (readHeap var3 (nthAddrRange var1 var0))))) (is-O_Int (readHeap var3 (nthAddrRange var1 var0)))))))
(assert (forall ((var0 Int) (var1 AddrRange) (var2 AddrRange) (var3 Heap)) (not (and (inv_main16 var3 var2 var1 var0) (not (is-O_Int (readHeap var3 (nthAddrRange var1 var0))))))))
(assert (forall ((var0 Int) (var1 AddrRange) (var2 AddrRange) (var3 Heap)) (not (and (and (inv_main16 var3 var2 var1 var0) (not (withinHeap var1 (nthAddrRange var1 var0)))) (is-O_Int (readHeap var3 (nthAddrRange var1 var0)))))))
(assert (forall ((var0 Int) (var1 AddrRange) (var2 AddrRange) (var3 Heap)) (not (and (and (inv_main16 var3 var2 var1 var0) (not (is-O_Int (readHeap var3 (nthAddrRange var1 var0))))) (is-O_Int (readHeap var3 (nthAddrRange var1 var0)))))))
(assert (forall ((var0 Int) (var1 Int) (var2 AddrRange) (var3 AddrRange) (var4 Heap)) (not (and (inv_main21 var4 var3 var2 var1 var0) (not (is-O_Int (readHeap var4 (nthAddrRange var3 var1))))))))
(assert (forall ((var0 Int) (var1 Int) (var2 AddrRange) (var3 AddrRange) (var4 Heap)) (not (and (and (inv_main21 var4 var3 var2 var1 var0) (not (withinHeap var3 (nthAddrRange var3 var1)))) (is-O_Int (readHeap var4 (nthAddrRange var3 var1)))))))
(assert (forall ((var0 Int) (var1 Int) (var2 Int) (var3 AddrRange) (var4 AddrRange) (var5 Heap)) (not (and (and (inv_main25 var5 var4 var3 var2 var1 var0) (not (is-O_Int (readHeap var5 (nthAddrRange var3 var2))))) (<= 0 var0)))))
(assert (forall ((var0 Int) (var1 Int) (var2 Int) (var3 AddrRange) (var4 AddrRange) (var5 Heap)) (not (and (and (and (inv_main25 var5 var4 var3 var2 var1 var0) (not (withinHeap var3 (nthAddrRange var3 var2)))) (is-O_Int (readHeap var5 (nthAddrRange var3 var2)))) (<= 0 var0)))))
(assert (forall ((var0 Int) (var1 Int) (var2 AddrRange) (var3 AddrRange) (var4 Heap)) (not (and (inv_main22 var4 var3 var2 var1 var0) (not (is-O_Int (readHeap var4 (nthAddrRange var3 var1))))))))
(assert (forall ((var0 Int) (var1 Int) (var2 AddrRange) (var3 AddrRange) (var4 Heap)) (not (and (and (inv_main22 var4 var3 var2 var1 var0) (not (withinHeap var3 (nthAddrRange var3 var1)))) (is-O_Int (readHeap var4 (nthAddrRange var3 var1)))))))
(assert (forall ((var0 Int) (var1 Int) (var2 Int) (var3 AddrRange) (var4 AddrRange) (var5 Heap)) (not (and (and (inv_main31 var5 var4 var3 var2 var1 var0) (not (is-O_Int (readHeap var5 (nthAddrRange var3 var2))))) (<= 0 (+ (* (- 1) var0) (* (- 1) 1)))))))
(assert (forall ((var0 Int) (var1 Int) (var2 Int) (var3 AddrRange) (var4 AddrRange) (var5 Heap)) (not (and (and (and (inv_main31 var5 var4 var3 var2 var1 var0) (not (withinHeap var3 (nthAddrRange var3 var2)))) (is-O_Int (readHeap var5 (nthAddrRange var3 var2)))) (<= 0 (+ (* (- 1) var0) (* (- 1) 1)))))))
(assert (forall ((var0 Int) (var1 Int) (var2 AddrRange) (var3 AddrRange) (var4 Heap)) (not (and (inv_main20 var4 var3 var2 var1 var0) (= var0 0)))))
(check-sat)
